c description: Counting Principle: 5 divided in parts of size 2.
c generator: CNFgen (0.9.0)
c copyright: (C) 2012-2020 Massimo Lauria <massimo.lauria@uniroma1.it>
c url: https://massimolauria.net/cnfgen
c command line: cnfgen parity 5
c
p cnf 10 35
-1 -2 0
-1 -3 0
-1 -4 0
-2 -3 0
-2 -4 0
-3 -4 0
1 2 3 4 0
-1 -5 0
-1 -6 0
-1 -7 0
-5 -6 0
-5 -7 0
-6 -7 0
1 5 6 7 0
-2 -5 0
-2 -8 0
-2 -9 0
-5 -8 0
-5 -9 0
-8 -9 0
2 5 8 9 0
-3 -6 0
-3 -8 0
-3 -10 0
-6 -8 0
-6 -10 0
-8 -10 0
3 6 8 10 0
-4 -7 0
-4 -9 0
-4 -10 0
-7 -9 0
-7 -10 0
-9 -10 0
4 7 9 10 0
